
Gurobi 9.1.2 (win64, Java) logging started Tue Nov  9 15:34:33 2021

Academic license - for non-commercial use only - expires 2022-10-30
Gurobi Optimizer version 9.1.2 build v9.1.2rc0 (win64)
Thread count: 6 physical cores, 12 logical processors, using up to 12 threads
Optimize a model with 450 rows, 45000 columns and 90000 nonzeros
Model fingerprint: 0x688bf06c
Variable types: 0 continuous, 45000 integer (45000 binary)
Coefficient statistics:
  Matrix range     [1e+00, 1e+03]
  Objective range  [4e+00, 1e+03]
  Bounds range     [1e+00, 1e+00]
  RHS range        [1e+00, 2e+03]
Found heuristic solution: objective 86365.000000
Presolve removed 119 rows and 22795 columns
Presolve time: 0.70s
Presolved: 331 rows, 22205 columns, 44324 nonzeros
Found heuristic solution: objective 86567.000000
Variable types: 0 continuous, 22205 integer (22204 binary)
Presolve removed 0 rows and 82 columns
Presolved: 331 rows, 22123 columns, 44242 nonzeros


Root relaxation: objective 8.910415e+04, 505 iterations, 0.02 seconds

    Nodes    |    Current Node    |     Objective Bounds      |     Work
 Expl Unexpl |  Obj  Depth IntInf | Incumbent    BestBd   Gap | It/Node Time

     0     0 89104.1515    0    1 86567.0000 89104.1515  2.93%     -    0s
H    0     0                    89006.000000 89104.1515  0.11%     -    0s
H    0     0                    89051.000000 89104.1515  0.06%     -    0s

Cutting planes:
  Cover: 1

Explored 1 nodes (3346 simplex iterations) in 0.99 seconds
Thread count was 12 (of 12 available processors)

Solution count 4: 89051 89006 86567 86365 

Optimal solution found (tolerance 1.00e-04)
Best objective 8.905100000000e+04, best bound 8.905100000000e+04, gap 0.0000%

Gurobi 9.1.2 (win64, Java) logging started Tue Nov  9 15:35:34 2021

Academic license - for non-commercial use only - expires 2022-10-30
Gurobi Optimizer version 9.1.2 build v9.1.2rc0 (win64)
Thread count: 6 physical cores, 12 logical processors, using up to 12 threads
Optimize a model with 450 rows, 45000 columns and 90000 nonzeros
Model fingerprint: 0x688bf06c
Variable types: 0 continuous, 45000 integer (45000 binary)
Coefficient statistics:
  Matrix range     [1e+00, 1e+03]
  Objective range  [4e+00, 1e+03]
  Bounds range     [1e+00, 1e+00]
  RHS range        [1e+00, 2e+03]
Found heuristic solution: objective 86365.000000
Presolve removed 119 rows and 22795 columns
Presolve time: 0.67s
Presolved: 331 rows, 22205 columns, 44324 nonzeros
Found heuristic solution: objective 86567.000000
Variable types: 0 continuous, 22205 integer (22204 binary)
Presolve removed 0 rows and 82 columns
Presolved: 331 rows, 22123 columns, 44242 nonzeros


Root relaxation: objective 8.910415e+04, 505 iterations, 0.02 seconds

    Nodes    |    Current Node    |     Objective Bounds      |     Work
 Expl Unexpl |  Obj  Depth IntInf | Incumbent    BestBd   Gap | It/Node Time

     0     0 89104.1515    0    1 86567.0000 89104.1515  2.93%     -    0s
H    0     0                    89006.000000 89104.1515  0.11%     -    0s
H    0     0                    89051.000000 89104.1515  0.06%     -    0s

Cutting planes:
  Cover: 1

Explored 1 nodes (3346 simplex iterations) in 0.93 seconds
Thread count was 12 (of 12 available processors)

Solution count 4: 89051 89006 86567 86365 

Optimal solution found (tolerance 1.00e-04)
Best objective 8.905100000000e+04, best bound 8.905100000000e+04, gap 0.0000%
